28 76 50 33 81 78 34 35 65 71 9 51 1 
26 12 24 29 79 3 77 68 80 54 55 25 4 74 58 
27 69 70 30 20 66 32 64 49 36 47 48 89 
2 57 87 95 92 98 85 44 16 61 84 17 45 46 8 83 60 5 93 59 99 96 94 6 
52 18 82 7 31 10 90 63 11 19 62 88 
53 40 21 73 72 23 67 39 56 75 22 41 15 43 42 14 38 86 91 100 37 97 13 
